NAME : DD65.2107333.tour
COMMENT : Cost = 0_2107333
COMMENT : Found by LKH [Keld Helsgaun] Sun Apr 23 15:14:36 2017
TYPE : TOUR
DIMENSION : 134
TOUR_SECTION
1
17
19
82
18
84
83
34
99
64
129
32
97
35
100
47
112
56
8
121
37
73
15
102
80
63
128
36
101
41
28
106
93
134
7
72
38
103
50
115
12
77
31
33
96
52
98
117
48
16
113
81
55
120
2
67
54
24
89
30
119
20
85
95
46
111
26
91
133
62
27
127
92
65
130
22
87
14
79
5
70
13
78
58
4
69
25
90
123
61
126
51
116
44
109
23
88
39
104
45
11
76
110
59
124
43
108
132
40
29
105
94
3
68
60
42
107
6
125
71
57
122
49
9
74
66
131
114
21
86
10
75
53
118
-1
EOF
